NAME: tsp40_6
COMMENT: 40-tsp problem (Padberg/Rinaldi)
TYPE: TSP
DIMENSION: 40
EDGE_WEIGHT_TYPE : EUC_2D
NODE_COORD_SECTION
1 36 6
2 11 24
3 2 4
4 35 40
5 24 28
6 20 7
7 21 18
8 16 35
9 23 35
10 11 35
11 10 7
12 13 19
13 13 24
14 27 36
15 30 14
16 6 25
17 15 13
18 27 31
19 36 12
20 20 37
21 26 27
22 40 34
23 31 37
24 21 27
25 28 5
26 21 27
27 16 7
28 28 34
29 3 19
30 29 25
31 19 17
32 3 0
33 23 11
34 3 6
35 7 13
36 9 6
37 22 19
38 13 28
39 27 24
40 16 20
